benchmarks/VRPTW/TSPTW/solution/n20w120.001.txt.solution
1 7 17 10 20 18 19 13 11 12 6 2 16 3 8 5 14 21 4 9 15 
267
